Solving original (integer) problem with strategy gdp.binary_multiplication...
--- Job model.gms Start 02/18/26 23:52:43 52.2.0 d8e408be LEX-LEG x86 64bit/Linux
--- Applying:
    /package/gams/52.2/gmsprmun.txt
--- GAMS Parameters defined
    Input /local/scratch/a/sgusev/repos/k_means/data/gams_gurobi_gdp.binary_multiplication/no_mode/2026-02-18_23-52-42/original/model.gms
    Output /local/scratch/a/sgusev/repos/k_means/data/gams_gurobi_gdp.binary_multiplication/no_mode/2026-02-18_23-52-42/original/output.lst
    ScrDir /local/scratch/a/sgusev/repos/k_means/data/gams_gurobi_gdp.binary_multiplication/no_mode/2026-02-18_23-52-42/original/225a/
    SysDir /package/gams/52.2/
    CurDir /local/scratch/a/sgusev/repos/k_means/data/gams_gurobi_gdp.binary_multiplication/no_mode/2026-02-18_23-52-42/original/
    LogOption 3
    AppendLog 1
Licensee: David Bernal / SECQUOIA Research Group         G251008+0003Ac-GEN
          Purdue University, Davidson School of Chemical EngineeringDCE4838
          225a/gamslice.dat
          5a82958a-fbca-4a23
          node:66820903 mem:995 cores:48 ipport:43361 v:2                  
          Evaluation license: Not for commercial or production use
          The time-limited license stops working on : Jun 30, 2027
System information: 48 physical cores and 995 Gb physical memory detected
GAMS 52.2.0   Copyright (C) 1987-2025 GAMS Development. All rights reserved
--- Starting compilation
--- model.gms(297) 2 Mb
--- $echo File /local/scratch/a/sgusev/repos/k_means/data/gams_gurobi_gdp.binary_multiplication/no_mode/2026-02-18_23-52-42/original/gurobi.opt
--- model.gms(523) 2 Mb
--- Starting execution: elapsed 0:00:00.006
--- model.gms(306) 3 Mb
--- Generating MINLP model GAMS_MODEL
--- model.gms(310) 5 Mb
---   77 rows  83 columns  321 non-zeroes
---   660 nl-code  240 nl-non-zeroes
---   60 discrete-columns
--- Range statistics (absolute non-zero finite values)
--- RHS       [min, max] : [ 1.000E+00, 1.000E+00] - Zero values observed as well
--- Bound     [min, max] : [ 1.000E+00, 4.800E+01] - Zero values observed as well
--- Matrix    [min, max] : [ 1.481E-01, 1.553E+00] - Zero values observed as well
--- model.gms(310) 3 Mb
--- Executing GUROBI (Solvelink=5): elapsed 0:00:00.009
Reading parameter(s) from "/local/scratch/a/sgusev/repos/k_means/data/gams_gurobi_gdp.binary_multiplication/no_mode/2026-02-18_23-52-42/original/gurobi.opt"
>>  NonConvex 2
>>  Threads 1
>>  MIPGap 1e-06
>>  MIPGapAbs 1e-10
>>  FeasibilityTol 1e-06
>>  OptimalityTol 1e-06
>>  IntFeasTol 1e-05
Finished reading from "/local/scratch/a/sgusev/repos/k_means/data/gams_gurobi_gdp.binary_multiplication/no_mode/2026-02-18_23-52-42/original/gurobi.opt"

... GRB_LICENSE_FILE = /local/scratch/a/sgusev/gurobi.lic

    Gurobi           52.2.0 d8e408be Dec 8, 2025           LEG x86 64bit/Linux    

... GAMS/Gurobi Link license.
... GMO Q Extraction (ThreePass): 0.00s

    Gurobi Optimizer version 13.0.0 build v13.0.0rc1 (linux64 - "Oracle Linux Server 9.7")
    
    CPU model: AMD EPYC 7643 48-Core Processor, instruction set [SSE2|AVX|AVX2]
    Thread count: 48 physical cores, 96 logical processors, using up to 1 threads
    
    Non-default parameters:
    TimeLimit  300
    MIPGap  1e-06
    LogToConsole  0
    NonConvex  2
    Threads  1
    
    Optimize a model with 76 rows, 142 columns and 128 nonzeros (Min)
    Model fingerprint: 0xcd69abd8
    Model has 12 linear objective coefficients
    Model has 60 general nonlinear constraints (180 nonlinear terms)
    Variable types: 82 continuous, 60 integer (0 binary)
    Coefficient statistics:
      Matrix range     [1e+00, 1e+00]
      Objective range  [1e+00, 1e+00]
      Bounds range     [1e+00, 5e+01]
      RHS range        [1e+00, 1e+00]
      NLCon coe range  [3e-03, 1e+00]
    Presolve model has 60 nlconstr
    Added 300 variables to disaggregate expressions
    Presolve removed 60 rows and 0 columns
    Presolve time: 0.00s
    Presolved: 796 rows, 503 columns, 1868 nonzeros
    Presolved model has 120 bilinear constraint(s)
    
    Solving non-convex MIQCP to global optimality
    
    Variable types: 443 continuous, 60 integer (60 binary)
    Found heuristic solution: objective 7.9748172
    
    Root relaxation: objective 0.000000e+00, 39 iterations, 0.00 seconds (0.00 work units)
    
        Nodes    |    Current Node    |     Objective Bounds      |     Work
     Expl Unexpl |  Obj  Depth IntInf | Incumbent    BestBd   Gap | It/Node Time
    
         0     0    0.00000    0  120    7.97482    0.00000   100%     -    0s
         0     0    0.00000    0  138    7.97482    0.00000   100%     -    0s
         0     0    0.00000    0  140    7.97482    0.00000   100%     -    0s
         0     0    0.00000    0  124    7.97482    0.00000   100%     -    0s
         0     0    0.00000    0  121    7.97482    0.00000   100%     -    0s
         0     0    0.00000    0  139    7.97482    0.00000   100%     -    0s
         0     0    0.00000    0  124    7.97482    0.00000   100%     -    0s
         0     0    0.00000    0  124    7.97482    0.00000   100%     -    0s
    H    0     0                       5.1949302    0.00000   100%     -    0s
    H    0     0                       3.3717131    0.00000   100%     -    0s
         0     2    0.00000    0  124    3.37171    0.00000   100%     -    0s
    H    3     3                       2.9261626    0.00000   100%   4.0    0s
    H    5     5                       2.9187880    0.00000   100%   4.6    0s
    H    5     5                       2.9184836    0.00000   100%   4.6    0s
    H    5     5                       2.9164139    0.00000   100%   4.6    0s
    H    5     5                       2.9164077    0.00000   100%   4.6    0s
    H    5     5                       2.9162760    0.00000   100%   4.6    0s
    H    6     6                       2.8794648    0.00000   100%   4.0    0s
    H    9     9                       2.8626548    0.00000   100%   6.4    0s
    H   10    10                       2.8571053    0.00000   100%   7.1    0s
    H   11    11                       2.8324618    0.00000   100%   6.5    0s
    H   11    11                       2.8319274    0.00000   100%   6.5    0s
    H   11    11                       2.8315922    0.00000   100%   6.5    0s
    H   48    40                       2.7036554    0.00000   100%  19.1    0s
    H   48    39                       2.4968636    0.00000   100%  19.1    0s
    H   48    39                       2.4324646    0.00000   100%  19.1    0s
    H   48    39                       2.4323606    0.00000   100%  19.1    0s
    H   54    43                       2.4105151    0.00000   100%  19.6    0s
    H   54    43                       2.4032332    0.00000   100%  19.6    0s
    H   93    56                       2.3959335    0.00000   100%  19.5    0s
    H  157   100                       2.3533922    0.00000   100%  17.9    0s
    H  157   100                       2.3434771    0.00000   100%  17.9    0s
    H  157   100                       2.3434155    0.00000   100%  17.9    0s
    H  157   100                       2.3433782    0.00000   100%  17.9    0s
    H  284   175                       2.1099753    0.00000   100%  16.5    0s
    H  284   174                       2.0648115    0.00000   100%  16.5    0s
    H  284   171                       1.9995939    0.00000   100%  16.5    0s
    H  284   171                       1.9989513    0.00000   100%  16.5    0s
    H  284   171                       1.9988349    0.00000   100%  16.5    0s
    H  318   185                       1.9987763    0.00000   100%  15.9    0s
    H  350   212                       1.9824076    0.00000   100%  16.1    0s
    H  388   218                       1.6812608    0.00000   100%  15.7    0s
    H  607   353                       1.6812608    0.00000   100%  14.9    0s
    H  691   383                       1.4785899    0.00000   100%  18.6    0s
    H  826   402                       1.4504505    0.00000   100%  19.6    1s
    H 1088   413                       1.4504486    0.00000   100%  20.8    1s
    H 1371   486                       1.3430193    0.00000   100%  19.9    1s
    H 1371   469                       1.3427541    0.00000   100%  19.9    1s
    H 1424   462                       1.3427488    0.00000   100%  20.0    1s
    H 1910   609                       1.3304156    0.00000   100%  20.3    2s
    H 1910   609                       1.3303651    0.00000   100%  20.3    2s
    H 1910   609                       1.3303605    0.00000   100%  20.3    2s
    H 1933   613                       1.1838135    0.00000   100%  20.2    2s
    H 1933   611                       1.1692226    0.00000   100%  20.2    2s
    H 1965   618                       1.1292312    0.00000   100%  20.3    2s
    H 1965   616                       1.1196900    0.00000   100%  20.3    2s
    H 1965   616                       1.1196851    0.00000   100%  20.3    2s
    H 2111   664                       1.1137712    0.00000   100%  20.8    2s
    H 2531   801                       0.9631910    0.00000   100%  20.3    3s
    H 2881   918                       0.9631891    0.00000   100%  20.2    3s
    H 2881   918                       0.9631891    0.00000   100%  20.2    3s
      3963  1208    0.40684   27  122    0.96319    0.00000   100%  20.7    5s
      9833  2459    0.71533   32  110    0.96319    0.11983  87.6%  21.5   10s
    H 9975  2442                       0.9255696    0.12372  86.6%  21.5   10s
    H10481  2562                       0.9125103    0.12929  85.8%  21.2   11s
    H12623  2737                       0.8989985    0.21447  76.1%  20.9   13s
    H13623  3028                       0.8989933    0.24098  73.2%  20.4   14s
     14115  3097     cutoff   42         0.89899    0.24684  72.5%  20.3   15s
    *14862  3290             127       0.8989897    0.26119  70.9%  19.9   15s
     20076  3913    0.82398   42  120    0.89899    0.37165  58.7%  18.9   20s
     26455  4078    0.69022   42  108    0.89899    0.46458  48.3%  18.1   25s
     32790  3907 infeasible   40         0.89899    0.55879  37.8%  17.4   30s
     39635  3718     cutoff   57         0.89899    0.64072  28.7%  16.5   35s
     47013  3621     cutoff   57         0.89899    0.69992  22.1%  15.5   40s
     55619  4076    0.79877   52   72    0.89899    0.74688  16.9%  14.1   45s
     63715  5285     cutoff   57         0.89899    0.77216  14.1%  13.0   50s
    *69031  5859             124       0.8989880    0.78491  12.7%  12.3   52s
     71943  6063    0.84832  106   24    0.89899    0.79153  12.0%  12.0   55s
     80563  6206     cutoff   62         0.89899    0.81555  9.28%  11.3   60s
     89374  6227     cutoff   63         0.89899    0.83446  7.18%  10.6   65s
     97985  6088    0.87400   60   60    0.89899    0.85676  4.70%  10.1   70s
     106888  5794     cutoff   52         0.89899    0.87714  2.43%   9.6   75s
     115940  6684     cutoff   74         0.89899    0.88437  1.63%   9.1   80s
     125126  7404    0.89049   73   84    0.89899    0.88938  1.07%   8.6   85s
     134218  9074    0.89673   82   72    0.89899    0.89148  0.83%   8.3   90s
     142494 10034    0.89897   93   60    0.89899    0.89261  0.71%   8.0   95s
     150817 11233    0.89880   85   72    0.89899    0.89329  0.63%   7.8  100s
     159530 11986    0.89716   79   60    0.89899    0.89383  0.57%   7.6  105s
     168202 12750    0.89433   80   72    0.89899    0.89425  0.53%   7.5  110s
     176644 13436     cutoff   89         0.89899    0.89458  0.49%   7.3  115s
     185132 13984    0.89829   84   48    0.89899    0.89487  0.46%   7.2  120s
     193940 14546    0.89783   79   72    0.89899    0.89511  0.43%   7.1  125s
     202511 14843    0.89571   82   72    0.89899    0.89533  0.41%   7.0  130s
     211394 14896    0.89892   95   47    0.89899    0.89556  0.38%   6.9  135s
     219607 14661     cutoff   82         0.89899    0.89580  0.36%   6.8  140s
     228497 14435    0.89895   99   83    0.89899    0.89604  0.33%   6.7  145s
     237202 14298    0.89776   84   60    0.89899    0.89630  0.30%   6.6  150s
     245848 14472    0.89875   92   72    0.89899    0.89654  0.27%   6.6  155s
     254525 14289    0.89801   88   72    0.89899    0.89679  0.24%   6.5  160s
     263255 13999     cutoff   91         0.89899    0.89701  0.22%   6.5  165s
     271851 13753    0.89875  100   48    0.89899    0.89721  0.20%   6.4  170s
     280608 13568     cutoff   80         0.89899    0.89740  0.18%   6.4  175s
     289035 13313    0.89881   81   48    0.89899    0.89762  0.15%   6.3  180s
     297708 13396    0.89861   99   72    0.89899    0.89779  0.13%   6.3  185s
     306818 13522     cutoff   96         0.89899    0.89794  0.12%   6.2  190s
     316352 14132    0.89893  100   72    0.89899    0.89803  0.11%   6.1  195s
     326007 14115    0.89874   88   60    0.89899    0.89813  0.10%   6.1  200s
     335689 14265     cutoff   81         0.89899    0.89819  0.09%   6.0  205s
     344968 14122    0.89866   96   36    0.89899    0.89825  0.08%   6.0  210s
     354707 13977    0.89870   94   60    0.89899    0.89831  0.08%   5.9  215s
     364047 13539    0.89882   93   60    0.89899    0.89836  0.07%   5.8  220s
     373771 12973    0.89872   90   49    0.89899    0.89842  0.06%   5.8  225s
     383246 12520    0.89873   96   72    0.89899    0.89846  0.06%   5.7  230s
     392625 11901    0.89897   95   59    0.89899    0.89852  0.05%   5.7  235s
     401890 10966     cutoff   85         0.89899    0.89860  0.04%   5.6  240s
     411583 10511    0.89895   95   48    0.89899    0.89867  0.04%   5.6  245s
     421028 10058    0.89889  103   48    0.89899    0.89873  0.03%   5.5  250s
     430612  9664     cutoff  109         0.89899    0.89877  0.02%   5.5  255s
     440352  9182     cutoff  112         0.89899    0.89881  0.02%   5.5  260s
     449858  8752     cutoff  118         0.89899    0.89884  0.02%   5.4  265s
     459863  8279    0.89898  115   36    0.89899    0.89886  0.01%   5.4  270s
     469594  7408     cutoff  106         0.89899    0.89888  0.01%   5.3  275s
     478549  5879    0.89897  114   48    0.89899    0.89892  0.01%   5.3  280s
     488086  4562    0.89897  117   37    0.89899    0.89895  0.00%   5.3  285s
     497676  2850     cutoff  120         0.89899    0.89896  0.00%   5.2  290s
    
    Cutting planes:
      Gomory: 3
      Implied bound: 15
      MIR: 3
      Flow cover: 40
      Inf proof: 1
      RLT: 6
    
    Explored 502879 nodes (2618917 simplex iterations) in 292.95 seconds (201.27 work units)
    Thread count was 1 (of 96 available processors)
    
    Solution count 10: 0.898988 0.89899 0.898993 ... 1.11969
    
    Optimal solution found (tolerance 1.00e-06)
    Warning: max constraint violation (1.7487e-06) exceeds tolerance
    Warning: max general constraint violation (1.7487e-06) exceeds tolerance
    Best objective 8.989880337097e-01, best bound 8.989871721174e-01, gap 0.0001%
    
    User-callback calls 502942, time in user-callback 0.03 sec

... Solving fixed model...

    Gurobi Optimizer version 13.0.0 build v13.0.0rc1 (linux64 - "Oracle Linux Server 9.7")
    
    CPU model: AMD EPYC 7643 48-Core Processor, instruction set [SSE2|AVX|AVX2]
    Thread count: 48 physical cores, 96 logical processors, using up to 1 threads
    
    Non-default parameters:
    TimeLimit  300
    MIPGap  1e-06
    LogToConsole  0
    NonConvex  2
    Threads  1
    
    Optimize a model with 76 rows, 142 columns and 128 nonzeros (Min)
    Model fingerprint: 0x1ea1b15a
    Model has 12 linear objective coefficients
    Coefficient statistics:
      Matrix range     [1e+00, 1e+00]
      Objective range  [1e+00, 1e+00]
      Bounds range     [2e-03, 1e+00]
      RHS range        [1e+00, 1e+00]
    Presolve removed 76 rows and 142 columns
    Presolve time: 0.00s
    Presolve: All rows and columns removed
    Iteration    Objective       Primal Inf.    Dual Inf.      Time
           0    8.9898803e-01   0.000000e+00   0.000000e+00      0s
    
    Solved in 0 iterations and 0.00 seconds (0.00 work units)
    Optimal objective  8.989880337e-01
    
    User-callback calls 0, time in user-callback 0.00 sec

--- Reading solution for model GAMS_MODEL
***
*** Solver did not provide marginals for model GAMS_MODEL
***
--- Executing after solve: elapsed 0:04:52.998
--- model.gms(313) 3 Mb
--- model.gms(523) 5 Mb
--- Putfile results /local/scratch/a/sgusev/repos/k_means/data/gams_gurobi_gdp.binary_multiplication/no_mode/2026-02-18_23-52-42/original/results.dat
--- Putfile statresults /local/scratch/a/sgusev/repos/k_means/data/gams_gurobi_gdp.binary_multiplication/no_mode/2026-02-18_23-52-42/original/resultsstat.dat
*** Status: Normal completion
--- Job model.gms Stop 02/18/26 23:57:36 elapsed 0:04:52.998
Original problem solved. Time taken: 293.4674618244171 seconds
Original objective value: 0.89898803370973
